
%FILE DATA:	Soccer Computational Problem for MiniZinc Models	%
%AUTHOR:	Jack Wall	%
%CONTACT:  	116397063@umail.ucc.ie			%
%LAST UPDATE:	03/19/2020, 20:58:59						%
%DESCRIPTION: 	261 games played with 45 games left				%


n=18; %number of teams

%Games to play
games=[|11,9|12,5|4,3|18,6|4,8|9,1|5,18|12,2|18,1|2,12|12,7|11,10|14,4|17,3|12,11|5,7|6,7|14,12|9,4|16,13|15,9|9,17|1,10|4,2|14,16|14,1|18,13|6,1|16,4|3,17|4,9|5,15|16,8|14,7|18,9|12,18|2,17|13,8|4,13|8,12|5,2|14,11|10,11|6,5|11,18|];

%Initial points
iPoints=[41,42,41,28,24,42,41,50,31,32,50,33,37,37,36,51,43,42];

%POSITION CONSTRAINTS
% [|teamID, operator, position|...]
% operators index:
%  1 for =  operator
%  2 for >  operator
%  3 for >= operator
%  4 for <  operator
%  5 for <= operator
positionConstraints=[|16,5,1|11,5,2|];